data/solutions/recovery/degenerate/intermediate/binding/degenerate_intermediate_instance31/100.sol
Elapsed time: 0.04
Upper bound: 15876607.0
Planning weighted value: 1.92176683127e+11
C[0]=15876607.0
C[1]=15535108.0
C[2]=15292744.0
C[3]=15202129.0
C[4]=15033633.0
C[5]=13902408.0
C[6]=13748924.0
C[7]=12217228.0
C[8]=11516849.0
C[9]=11296325.0
C[10]=11284375.0
C[11]=11245363.0
C[12]=11104093.0
C[13]=11035414.0
y[0]=13
y[1]=7
y[2]=3
y[3]=12
y[4]=6
y[5]=10
y[6]=8
y[7]=2
y[8]=0
y[9]=0
y[10]=1
y[11]=2
y[12]=4
y[13]=11
y[14]=12
y[15]=3
y[16]=8
y[17]=6
y[18]=11
y[19]=8
y[20]=1
y[21]=0
y[22]=0
y[23]=1
y[24]=12
y[25]=11
y[26]=5
y[27]=1
y[28]=10
y[29]=4
y[30]=5
y[31]=9
y[32]=2
y[33]=8
y[34]=6
y[35]=11
y[36]=8
y[37]=13
y[38]=11
y[39]=10
y[40]=7
y[41]=8
y[42]=10
y[43]=12
y[44]=7
y[45]=6
y[46]=7
y[47]=2
y[48]=12
y[49]=13
y[50]=2
y[51]=1
y[52]=4
y[53]=3
y[54]=12
y[55]=4
y[56]=13
y[57]=1
y[58]=3
y[59]=1
y[60]=9
y[61]=5
y[62]=9
y[63]=9
y[64]=6
y[65]=13
y[66]=3
y[67]=4
y[68]=3
y[69]=5
y[70]=6
y[71]=5
y[72]=5
y[73]=10
y[74]=9
y[75]=0
y[76]=2
y[77]=5
y[78]=1
y[79]=3
